Instance name:    bar-n100-5
Authors:          PDPTW Solver
Date:             2025-11-20
Reference:        LNS with SA/RTR
Solution
Route 1 : 34 45 95 30 84 80 47 16 66 97 49 99 43 93 31 81
Route 2 : 27 77 15 65 50 100 26 76 19 69 41 91 38 88 14 64 8 58
Route 3 : 36 40 86 90 22 25 75 72 6 56 4 54 17 67 33 83
Route 4 : 3 53 11 46 96 35 85 61 24 74 9 59 7 32 82 57
Route 5 : 48 28 78 98 18 68 5 55 10 60 1 21 71 51 39 89
Route 6 : 37 87 13 63 44 42 92 29 12 94 62 23 73 79 20 70 2 52
